500
[100,102,104,105,106,107,108,109,110,111,112,113,114,116,117,118,119,120,121,122,123,124,127,128,130,131,133,134,135,136,138,139,140,142,143,144,145,147,148,149,151,152,153,154,155,157,159,160,161,165,166,168,169,170,172,173,175,176,177,178,179,180,181,183,185,188,189,190,192,195,196,197,199,201,202,203,204,205,206,207,208,209,210,211,214,215,216,217,218,219,220,221,222,224,226,227,228,231,232,233,236,238,240,242,243,244,246,247,248,250,251,252,253,254,255,256,258,259,261,262,265,266,268,269,270,271,273,276,277,278,279,282,283,284,286,287,288,290,291,292,293,294,295,297,298,299,301,302,303,305,306,310,313,314,315,316,319,321,328,329,333,334,336,337,338,339,340,341,342,343,344,345,346,348,349,350,351,352,353,354,356,357,359,360,362,364,366,368,370,371,373,375,376,378,379,380,381,382,383,384,386,387,388,389,390,391,392,393,394,396,397,399,400]
[1,2,2,3,3,2,1,2,2,1,2,2,3,2,2,1,2,3,3,3,2,1,1,1,5,1,1,2,3,4,3,3,1,1,1,2,3,2,1,2,2,2,1,1,1,2,1,2,3,2,1,4,1,2,2,1,1,2,2,1,1,2,1,3,2,1,2,1,2,3,1,1,1,3,4,1,3,2,1,3,2,2,2,1,1,1,2,3,1,4,2,2,1,1,1,2,2,2,2,2,1,3,1,2,3,1,1,4,1,1,2,1,3,1,2,4,2,1,2,1,2,2,2,2,2,4,3,2,2,3,1,1,2,2,2,1,3,1,1,4,1,1,1,2,1,1,3,3,1,1,2,2,2,1,1,2,1,4,1,2,3,1,2,1,1,2,2,1,2,2,2,2,2,6,3,1,2,2,2,2,1,1,4,3,1,1,1,1,2,2,2,2,2,3,1,1,2,2,4,2,2,3,1,1,1,1,1,2,1,1,1,2,2]
